639,364
628,379
504,59
981,406
711,406
681,886
977,452
1221,406
1001,569
727,548
998,842
628,433
745,207
342,652
1155,481
387,257
611,503
1095,471
745,207
254,623
415,599
761,366
756,880
736,577
584,336
300,25
491,596
